Maximize
 obj: x0
Subject To
 c01: x0 = 1
 c02: x11 + x45 - x9  <= 1
 c03: x13 + x59 - x9  <= 1
 c04: x14 + x43 - x10 <= 1
 c05: x22 + x61 - x20 <= 1
 c06: x23 + x60 - x20 <= 1
 c07: x35 + x45 - x33 <= 1
 c08: x35 + x62 - x34 <= 1
 c09: x37 + x59 - x33 <= 1
 c10: x38 + x43 - x34 <= 1
 c11: x38 + x45 - x36 <= 1
 c12: x38 + x61 - x36 <= 1
 c13: x39 + x44 - x36 <= 1
 c14: x42 + x55 - x34 <= 1
 c15: x53 + x43 - x33 <= 1
 c16: x54 + x43 - x34 <= 1
 c17: x44 + x55 - x36 <= 1
 c18: x47 + x49 - x33 <= 1
 c19: x47 - x1  <= 0
 c20: x63 - x1  <= 0
 c21: x63 - x8  <= 0
 c22: x7  - x4  <= 0
 c23: x55 - x4  <= 0
 c24: x63 - x12 <= 0
 c25: x14 - x2  <= 0
 c26: x46 - x2  <= 0
 c27: x47 - x3  <= 0
 c30: x61 - x17 <= 0
 c31: x62 - x18 <= 0
 c32: x63 - x19 <= 0
 c33: x31 - x24 <= 0
 c34: x37 - x32 <= 0
 c35: x38 - x32 <= 0
 c36: x39 - x32 <= 0
 c37: x47 - x40 <= 0
 c38: x55 - x48 <= 0
 c39: x63 - x56 <= 0
 c40: x15 + x53 - x1 - x5   <= 0
 c41: x15 + x57 - x1 - x9   <= 0
 c42: x58 + x15 - x8 - x10  <= 0
 c43: x15 + x59 - x1 - x11  <= 0
 c44: x45 + x23 - x1 - x5   <= 0
 c45: x60 + x23 - x20 - x16 <= 0
 c46: x61 + x23 - x21 - x16 <= 0
 c47: x45 + x27 - x1 - x9   <= 0
 c48: x27 + x61 - x25 - x16 <= 0
 c49: x43 + x29 - x1 - x9   <= 0
 c50: x54 + x29 - x20 - x16 <= 0
 c51: x29 + x59 - x16 - x25 <= 0
 c52: x43 + x30 - x10 - x8  <= 0
 c53: x53 + x30 - x16 - x20 <= 0
 c54: x59 + x30 - x16 - x26 <= 0
 c55: x31 + x60 - x16 - x28 <= 0
 c56: x43 + x45 - x8- x41   <= 0
 c57: x43 + x62 - x8- x42   <= 0
 c58: x47 + x62 - x8- x46   <= 0
 c59: x51 + x62 - x16 - x50 <= 0
 c60: x7+ x54- x4- x6       <= 0
 c61: x51 + x53 - x48 - x49 <= 0
 c62: 88 x0 +58 x1 + 54 x2 + 24 x3 + 48 x4 + 18 x5 + 14 x6 - 16 x7 + 64 x8 + 34 x9 + 30 x10 +24 x12- 6 x13 - 10 x14 - 40 x15 + 72 x16 + 42 x17 + 38 x18 + 8 x19 + 32 x20 + 2 x21 - 2 x22- 32 x23 + 48 x24 + 18 x25 + 14 x26 - 16 x27 + 8 x28 - 22 x29 - 26 x30- 56 x31 + 56 x32+ 26 x33+ 22 x34 - 8 x35 + 16 x36- 14 x37 - 18 x38 - 48 x39 + 32 x40 + 2 x41- 2 x42- 32 x43 - 8 x44 - 38 x45 - 42 x46 - 72 x47 + 40 x48 + 10 x49 + 6 x50 - 24 x51 - 30 x53 - 34 x54 - 64 x55 + 16 x56 - 14 x57- 18 x58 - 48 x59 - 24 x60 - 54 x61- 58 x62 - 88 x63 <= -1
End
